c File: data_files/evolved_graphs/g0136.col
c
c Auto generated graph
c
p edge 100 577
e 1 8
e 1 30
e 1 91
e 1 92
e 2 8
e 2 18
e 2 21
e 2 23
e 2 25
e 2 37
e 2 38
e 2 39
e 2 41
e 2 43
e 2 46
e 2 49
e 2 92
e 2 95
e 2 100
e 3 4
e 3 14
e 3 16
e 3 19
e 3 20
e 3 21
e 3 27
e 3 37
e 3 41
e 3 44
e 3 91
e 3 97
e 4 7
e 4 11
e 4 17
e 4 32
e 4 41
e 4 43
e 4 45
e 4 48
e 4 93
e 4 94
e 4 98
e 4 100
e 5 9
e 5 10
e 5 17
e 5 28
e 5 30
e 5 32
e 5 33
e 5 43
e 5 48
e 5 95
e 5 98
e 5 99
e 6 10
e 6 11
e 6 19
e 6 25
e 6 28
e 6 29
e 6 47
e 6 48
e 6 95
e 6 100
e 7 8
e 7 10
e 7 12
e 7 15
e 7 17
e 7 28
e 7 31
e 7 33
e 7 37
e 7 97
e 7 98
e 7 100
e 8 16
e 8 20
e 8 21
e 8 23
e 8 26
e 8 34
e 8 39
e 9 12
e 9 16
e 9 18
e 9 20
e 9 34
e 9 35
e 9 37
e 9 41
e 9 45
e 9 48
e 10 11
e 10 29
e 10 35
e 10 38
e 10 48
e 10 75
e 10 93
e 10 94
e 11 16
e 11 21
e 11 23
e 11 26
e 11 28
e 11 34
e 11 45
e 11 46
e 11 47
e 11 93
e 12 16
e 12 29
e 12 30
e 12 31
e 12 41
e 12 49
e 12 99
e 12 100
e 13 15
e 13 22
e 13 24
e 13 25
e 13 28
e 13 36
e 13 40
e 13 42
e 13 45
e 13 46
e 13 47
e 13 49
e 13 91
e 13 98
e 13 99
e 14 24
e 14 29
e 14 38
e 14 39
e 14 48
e 14 91
e 14 94
e 15 24
e 15 37
e 15 43
e 15 92
e 15 96
e 15 98
e 16 21
e 16 22
e 16 24
e 16 27
e 16 28
e 16 37
e 16 38
e 16 39
e 16 41
e 16 92
e 16 93
e 16 96
e 16 98
e 17 18
e 17 20
e 17 23
e 17 35
e 17 36
e 17 42
e 17 44
e 17 45
e 17 47
e 17 48
e 17 49
e 17 92
e 17 96
e 18 22
e 18 27
e 18 29
e 18 36
e 18 45
e 18 47
e 18 92
e 18 93
e 18 97
e 19 22
e 19 33
e 19 34
e 19 37
e 19 43
e 19 92
e 19 94
e 20 28
e 20 35
e 20 37
e 20 45
e 20 92
e 21 28
e 21 41
e 21 45
e 21 92
e 21 94
e 21 95
e 22 29
e 22 39
e 22 45
e 22 47
e 22 98
e 22 99
e 22 100
e 23 26
e 23 38
e 23 40
e 23 98
e 24 33
e 24 41
e 24 43
e 24 47
e 24 94
e 24 98
e 24 100
e 25 27
e 25 38
e 25 40
e 25 47
e 25 91
e 25 96
e 25 99
e 26 33
e 26 40
e 26 91
e 26 92
e 26 96
e 27 29
e 27 31
e 27 38
e 27 47
e 27 91
e 27 94
e 27 97
e 27 98
e 28 36
e 28 38
e 28 42
e 28 46
e 28 47
e 28 91
e 28 94
e 28 95
e 28 99
e 28 100
e 29 34
e 29 37
e 29 41
e 29 46
e 29 91
e 29 92
e 29 93
e 29 94
e 29 95
e 29 99
e 30 36
e 30 37
e 30 54
e 30 93
e 31 32
e 31 33
e 31 35
e 31 36
e 31 43
e 31 46
e 31 94
e 31 96
e 32 42
e 33 39
e 33 41
e 33 45
e 33 46
e 33 47
e 33 95
e 34 38
e 34 46
e 34 97
e 34 99
e 34 100
e 35 38
e 35 92
e 35 93
e 35 97
e 36 38
e 36 40
e 36 93
e 36 94
e 36 95
e 37 39
e 37 47
e 37 49
e 37 95
e 37 100
e 38 91
e 38 99
e 38 100
e 39 44
e 40 43
e 40 45
e 40 92
e 40 99
e 41 46
e 41 93
e 41 94
e 41 98
e 42 44
e 42 47
e 42 96
e 42 97
e 42 100
e 43 48
e 43 91
e 43 95
e 43 97
e 43 100
e 44 100
e 45 46
e 45 53
e 45 60
e 45 63
e 45 72
e 45 82
e 45 92
e 46 49
e 46 62
e 46 63
e 46 64
e 46 66
e 46 67
e 46 91
e 47 51
e 47 52
e 47 58
e 47 59
e 47 80
e 47 92
e 47 97
e 48 49
e 48 77
e 48 82
e 48 85
e 48 88
e 48 91
e 49 60
e 49 70
e 49 73
e 49 79
e 49 89
e 49 91
e 50 52
e 50 53
e 50 57
e 50 60
e 50 70
e 50 86
e 50 100
e 51 57
e 51 65
e 51 74
e 51 76
e 51 78
e 51 80
e 51 87
e 51 99
e 52 53
e 52 60
e 52 63
e 52 69
e 52 71
e 52 76
e 52 77
e 52 81
e 52 90
e 52 93
e 53 55
e 53 56
e 53 57
e 53 61
e 53 68
e 53 69
e 53 75
e 53 86
e 53 91
e 53 92
e 53 99
e 54 56
e 54 57
e 54 59
e 54 65
e 54 70
e 54 73
e 54 93
e 54 94
e 54 97
e 55 62
e 55 73
e 55 83
e 55 88
e 55 92
e 55 93
e 55 96
e 55 100
e 56 63
e 56 66
e 56 77
e 56 89
e 56 91
e 56 96
e 56 98
e 57 65
e 57 73
e 57 78
e 57 85
e 57 90
e 57 92
e 57 100
e 58 63
e 58 69
e 58 73
e 58 84
e 58 87
e 58 88
e 58 93
e 58 94
e 58 95
e 58 96
e 58 100
e 59 76
e 59 79
e 59 80
e 59 86
e 59 88
e 59 89
e 59 92
e 59 93
e 59 96
e 59 98
e 59 99
e 60 66
e 60 68
e 60 69
e 60 70
e 60 71
e 60 73
e 60 76
e 60 90
e 60 93
e 60 94
e 60 95
e 60 96
e 60 97
e 60 99
e 61 72
e 61 79
e 61 83
e 61 88
e 61 99
e 62 64
e 62 73
e 62 84
e 63 66
e 63 70
e 63 77
e 63 82
e 63 86
e 63 87
e 63 92
e 63 93
e 63 95
e 64 65
e 64 66
e 64 67
e 64 71
e 64 79
e 64 84
e 65 76
e 65 89
e 65 98
e 66 71
e 66 73
e 66 84
e 66 86
e 66 87
e 66 97
e 66 98
e 67 69
e 67 73
e 67 77
e 67 79
e 67 80
e 67 84
e 67 88
e 67 90
e 67 92
e 67 96
e 68 70
e 68 71
e 68 87
e 68 97
e 69 77
e 69 82
e 69 84
e 69 87
e 69 100
e 70 75
e 70 78
e 70 85
e 70 86
e 70 89
e 70 90
e 70 99
e 71 77
e 71 78
e 71 80
e 71 87
e 71 91
e 71 99
e 72 75
e 72 86
e 72 87
e 72 95
e 73 77
e 73 97
e 74 75
e 74 76
e 74 81
e 75 77
e 75 91
e 75 98
e 76 80
e 76 83
e 76 85
e 76 87
e 76 98
e 77 79
e 77 89
e 77 94
e 77 99
e 78 80
e 78 81
e 78 89
e 78 91
e 78 96
e 79 100
e 80 98
e 81 87
e 81 93
e 81 94
e 82 86
e 83 93
e 83 97
e 84 88
e 84 89
e 85 100
e 86 90
e 86 98
e 88 93
e 88 95
e 88 97
e 88 98
e 89 95
e 89 97
e 89 99
e 90 94
e 90 97
e 90 98
e 91 94
e 91 98
e 92 97
e 92 100
e 93 100
e 96 100
e 98 100
